(set-logic ALL)
(set-option :produce-models true)
(declare-sort BoundSet 0)
(declare-sort UnboundSet 0)
(declare-fun IsDriverOf (BoundSet BoundSet) Bool)
(declare-fun ( (Bool) Bool)
(declare-fun IsOn (BoundSet) Bool)
(declare-fun IsConsideredBy (BoundSet BoundSet) Bool)
(assert (not (=> (exists ((a BoundSet)) (exists ((c BoundSet)) (exists ((d BoundSet)) (and (exists ((b BoundSet)) (( (and (IsDriverOf c a) (IsDriverOf d a)))) (IsOn b))))) (exists ((e BoundSet)) (exists ((f BoundSet)) (exists ((b BoundSet)) (and (not (IsConsideredBy f e)) (IsOn b))))))))
(check-sat)
(get-model)